# Solution for model schedule
# Objective value = 6752
Off_0_5_0_0 84
Off_0_5_1_0 1084
Off_0_5_2_0 2084
Off_0_5_3_0 3084
Off_0_3_0_0 179
Off_0_3_1_0 1179
Off_0_3_2_0 2179
Off_0_3_3_0 3179
Off_0_1_0_0 274
Off_0_1_1_0 1274
Off_0_1_2_0 2274
Off_0_1_3_0 3274
Off_1_5_0_0 84
Off_1_5_1_0 1084
Off_1_5_2_0 2084
Off_1_5_3_0 3084
Off_1_3_0_0 179
Off_1_3_1_0 1179
Off_1_3_2_0 2179
Off_1_3_3_0 3179
Off_1_1_0_0 274
Off_1_1_1_0 1274
Off_1_1_2_0 2274
Off_1_1_3_0 3274
Off_2_5_0_0 84
Off_2_5_1_0 1084
Off_2_5_2_0 2084
Off_2_5_3_0 3084
Off_2_3_0_0 179
Off_2_3_1_0 1179
Off_2_3_2_0 2179
Off_2_3_3_0 3179
Off_2_1_0_0 274
Off_2_1_1_0 1274
Off_2_1_2_0 2274
Off_2_1_3_0 3274
Off_3_0_0_0 84
Off_3_0_1_0 1084
Off_3_0_2_0 2084
Off_3_0_3_0 3084
Off_3_2_0_0 179
Off_3_2_1_0 1179
Off_3_2_2_0 2179
Off_3_2_3_0 3179
Off_3_4_0_0 274
Off_3_4_1_0 1274
Off_3_4_2_0 2274
Off_3_4_3_0 3274
Off_4_5_0_0 184
Off_4_5_1_0 2184
Off_4_3_0_0 379
Off_4_3_1_0 2379
Off_4_1_0_0 574
Off_4_1_1_0 2574
Off_5_0_0_0 184
Off_5_0_1_0 2184
Off_5_2_0_0 379
Off_5_2_1_0 2379
Off_5_4_0_0 574
Off_5_4_1_0 2574
Off_6_5_0_0 184
Off_6_5_1_0 2184
Off_6_3_0_0 379
Off_6_3_1_0 2379
Off_6_1_0_0 574
Off_6_1_1_0 2574
Off_7_0_0_0 184
Off_7_0_1_0 2184
Off_7_2_0_0 379
Off_7_2_1_0 2379
Off_7_4_0_0 574
Off_7_4_1_0 2574
Off_8_5_0_0 184
Off_8_5_1_0 2184
Off_8_3_0_0 379
Off_8_3_1_0 2379
Off_8_1_0_0 574
Off_8_1_1_0 2574
Off_9_0_0_0 184
Off_9_0_1_0 2184
Off_9_2_0_0 379
Off_9_2_1_0 2379
Off_9_4_0_0 574
Off_9_4_1_0 2574
Off_10_5_0_0 384
Off_10_3_0_0 779
Off_10_1_0_0 1174
Off_11_5_0_0 384
Off_11_3_0_0 779
Off_11_1_0_0 1174
Off_12_0_0_0 384
Off_12_2_0_0 779
Off_12_4_0_0 1174
Off_13_0_0_0 384
Off_13_2_0_0 779
Off_13_4_0_0 1174
Off_14_5_0_0 384
Off_14_3_0_0 779
Off_14_1_0_0 1174
Off_15_0_0_0 384
Off_15_2_0_0 779
Off_15_4_0_0 1174
Off_16_0_0_0 384
Off_16_2_0_0 779
Off_16_4_0_0 1174
Off_17_5_0_0 384
Off_17_3_0_0 779
Off_17_1_0_0 1174
Off_18_0_0_0 384
Off_18_2_0_0 779
Off_18_4_0_0 1174
Off_19_5_0_0 384
Off_19_3_0_0 779
Off_19_1_0_0 1174
SHP_0_0 0
SHP_0_1 1000
SHP_0_2 2000
SHP_0_3 3000
SHP_1_0 0
SHP_1_1 1000
SHP_1_2 2000
SHP_1_3 3000
SHP_2_0 0
SHP_2_1 1000
SHP_2_2 2000
SHP_2_3 3000
SHP_3_0 0
SHP_3_1 1000
SHP_3_2 2000
SHP_3_3 3000
SHP_4_0 0
SHP_4_1 1000
SHP_4_2 2000
SHP_4_3 3000
SHP_5_0 0
SHP_5_1 1000
SHP_5_2 2000
SHP_5_3 3000
FrameDis_0 84
FrameDis_1 84
FrameDis_2 84
FrameDis_3 84
FrameDis_4 184
FrameDis_5 184
FrameDis_6 184
FrameDis_7 184
FrameDis_8 184
FrameDis_9 184
FrameDis_10 384
FrameDis_11 384
FrameDis_12 384
FrameDis_13 384
FrameDis_14 384
FrameDis_15 384
FrameDis_16 384
FrameDis_17 384
FrameDis_18 384
FrameDis_19 384
LinkDis_0 4000
LinkDis_1 4000
LinkDis_2 4000
LinkDis_3 4000
LinkDis_4 4000
